DIMENSION: 100
35
86
27
20
12
46
43
3
41
71
100
48
14
29
34
83
55
7
9
57
87
51
25
81
68
85
30
52
78
96
5
37
39
33
76
13
95
82
50
44
73
2
64
54
40
69
61
58
67
8
42
89
31
80
56
26
66
65
4
97
19
75
92
90
49
6
63
1
28
93
47
10
84
79
53
88
16
70
22
94
18
24
38
99
36
72
21
74
59
11
17
15
32
45
91
98
23
77
60
62
